NAME : case_10
TYPE : CVRP
DIMENSION : 20
EDGE_WEIGHT_TYPE : EUC_2D
CAPACITY : 100
NODE_COORD_SECTION
1	56	666
2	41	367
3	336	44
4	792	917
5	781	849
6	559	746
7	897	431
8	99	1000
9	534	906
10	65	804
11	565	82
12	365	89
13	2	239
14	842	559
15	756	147
16	282	213
17	874	740
18	986	414
19	480	579
20	83	489
DEMAND_SECTION
1	12
2	15
3	28
4	28
5	10
6	30
7	13
8	19
9	18
10	15
11	22
12	30
13	23
14	29
15	21
16	16
17	9
18	9
19	11
20	21
DEPOT_SECTION
1
-1
EOF
VEHICLE : 10
